(declare-const a Real)
(declare-const b Real)
(declare-const c Real)
(assert (= (+ a b c) 3))
(assert (> a 0))
(assert (> b 0))
(assert (> c 0))
(assert (not (<= (+ (* (pow (+ (* 62914560 (pow b 3)) (* 552960 c (pow (+ a b) 4))) -1) (pow (+ (* 552960 c (pow (+ a b) 4)) (* 26214400 c (pow b 3)) (* 36700160 a (pow b 3))) 2)) (* -199229440 a (pow c 4)) (* -199229440 b (pow a 4)) (* -193822720 c (pow b 4)) (* -39845888 a (pow b 4)) (* -39845888 b (pow c 4)) (* -36700160 (pow a 2) (pow c 3)) (* -36700160 (pow a 3) (pow b 2)) (* -34439168 c (pow a 4)) (* 36700160 (pow b 2) (pow c 3)) (* 99614720 (pow a 3) (pow c 2)) (* 176160768 a b (pow c 3)) (* 197787648 a c (pow b 3)) (* 197787648 b c (pow a 3))) 0)))
(check-sat)
(get-model)
(exit)